<number of tasks>
50

<cycle time>
1000

<order strength>
0.595


<task times>
1 293
2 36
3 303
4 142
5 171
6 108
7 29
8 167
9 565
10 80
11 411
12 339
13 88
14 123
15 266
16 174
17 507
18 261
19 187
20 287
21 298
22 234
23 209
24 251
25 116
26 127
27 142
28 200
29 97
30 87
31 82
32 492
33 360
34 39
35 177
36 129
37 320
38 124
39 198
40 141
41 292
42 117
43 77
44 56
45 104
46 456
47 32
48 279
49 219
50 402

<precedence relations>
1,7
1,12
2,27
3,10
3,11
4,8
4,22
5,7
5,8
5,9
6,8
6,9
7,13
7,14
7,15
7,16
8,13
8,23
10,18
10,32
11,27
12,16
12,24
12,31
13,17
13,18
13,19
13,21
13,26
14,18
14,19
14,26
15,20
16,22
16,23
16,30
17,24
17,25
17,28
18,24
18,25
18,36
19,24
19,25
19,27
20,26
22,37
22,42
23,26
24,30
26,28
27,28
27,29
27,31
28,32
28,33
28,35
28,38
29,32
30,34
31,32
32,37
32,43
34,37
34,38
35,36
36,42
36,46
36,49
37,41
38,39
38,40
38,49
39,43
39,44
39,50
40,42
40,46
41,45
42,50
43,46
43,47
43,48
45,49

<end>
